============================[ Problem Statistics ]=============================
|                                                                             |
|  Number of variables:          2357                                         |
|  Number of clauses:            7030                                         |
|  Parse time:                   0.00 s                                       |
|  Eliminated clauses:           0.08 Mb                                      |
|  Simplification time:          0.00 s                                       |
|                                                                             |
============================[ Search Statistics ]==============================
| Conflicts |          ORIGINAL         |          LEARNT          | Progress |
|           |    Vars  Clauses Literals |    Limit  Clauses Lit/Cl |          |
===============================================================================
|       100 |     682     3469    11364 |     1271      100     11 |  0.043 % |
|       250 |     682     3469    11364 |     1399      250     43 |  0.042 % |
|       475 |     682     3469    11364 |     1539      475     38 |  0.042 % |
|       812 |     682     3469    11364 |     1692      812     37 |  0.042 % |
|      1318 |     682     3469    11364 |     1862     1318     40 |  0.042 % |
|      2077 |     682     3469    11364 |     2048     1091     32 |  0.042 % |
|      3216 |     682     3469    11364 |     2253     1121     26 |  0.042 % |
|      4924 |     682     3469    11364 |     2478     1668     31 |  0.042 % |
|      7486 |     682     3469    11364 |     2726     1557     28 |  0.042 % |
|     11330 |     682     3469    11364 |     2999     2510     31 |  0.042 % |
|     17096 |     682     3469    11364 |     3299     1965     26 |  0.042 % |
|     25745 |     682     3469    11364 |     3629     2094     17 |  0.042 % |
|     38719 |     682     3469    11364 |     3991     2055     19 |  0.042 % |
|     58180 |     681     3465    11348 |     4391     2950     27 |  0.085 % |
|     87372 |     680     3461    11332 |     4830     4149     20 |  0.127 % |
|    131161 |     678     3453    11300 |     5313     3350     24 |  0.212 % |
|    196845 |     678     3453    11300 |     5844     3597     26 |  0.212 % |
|    295371 |     678     3453    11300 |     6429     3314     18 |  0.212 % |
|    443160 |     677     3449    11284 |     7072     6607     32 |  0.255 % |
|    664843 |     677     3449    11284 |     7779     4003     29 |  0.255 % |
|    997368 |     677     3449    11284 |     8557     4077     23 |  0.255 % |
|   1496156 |     677     3449    11284 |     9412     7117     28 |  0.255 % |
|   2244338 |     677     3449    11284 |    10354     9048     27 |  0.255 % |
|   3366612 |     677     3449    11284 |    11389     7612     26 |  0.255 % |
|   5050023 |     677     3449    11284 |    12528     7200     27 |  0.255 % |
|   7575139 |     677     3449    11284 |    13781     9319     26 |  0.255 % |
|  11362814 |     677     3449    11284 |    15159     9255     24 |  0.255 % |
|  17044326 |     676     3445    11268 |    16675    10982     26 |  0.297 % |
|  25566595 |     676     3445    11268 |    18343    10806     24 |  0.297 % |
|  38349998 |     676     3445    11268 |    20177    12292     28 |  0.297 % |
|  57525103 |     673     3427    11210 |    22195    13518     26 |  0.425 % |
===============================================================================
restarts              : 77998
conflicts             : 60321247       (33769 /sec)
decisions             : 72009980       (0.00 % random) (40313 /sec)
propagations          : 9327684269     (5221820 /sec)
conflict literals     : 1998908207     (47.90 % deleted)
Memory used           : 108.11 MB
CPU time              : 1786.29 s

UNSATISFIABLE
File /Users/damy17/Documents/hw-uni/master-1-uvt/verificare-formala/benchmark/input-files/benchmarkfile22.cnf completed successfully.
